(set-option :produce-models true)
(set-logic QF_UF)
(declare-fun p20() Bool)
(declare-fun p59() Bool)
(declare-fun p53() Bool)
(declare-fun p39() Bool)
(declare-fun p46() Bool)
(declare-fun p25() Bool)
(declare-fun p33() Bool)
(declare-fun p10() Bool)
(declare-fun p0() Bool)
(declare-fun p28() Bool)
(declare-fun p23() Bool)
(declare-fun p29() Bool)
(declare-fun p2() Bool)
(declare-fun p62() Bool)
(declare-fun p48() Bool)
(declare-fun p16() Bool)
(declare-fun p26() Bool)
(declare-fun p30() Bool)
(declare-fun p15() Bool)
(declare-fun p4() Bool)
(declare-fun p63() Bool)
(declare-fun p12() Bool)
(declare-fun p44() Bool)
(declare-fun p22() Bool)
(declare-fun p31() Bool)
(declare-fun p50() Bool)
(declare-fun p60() Bool)
(declare-fun p66() Bool)
(declare-fun p41() Bool)
(declare-fun p37() Bool)
(declare-fun p58() Bool)
(declare-fun p43() Bool)
(declare-fun p40() Bool)
(declare-fun p56() Bool)
(declare-fun p65() Bool)
(declare-fun p13() Bool)
(declare-fun p3() Bool)
(declare-fun p69() Bool)
(declare-fun p61() Bool)
(declare-fun p54() Bool)
(declare-fun p36() Bool)
(declare-fun p49() Bool)
(declare-fun p35() Bool)
(declare-fun p11() Bool)
(declare-fun p57() Bool)
(declare-fun p24() Bool)
(declare-fun p7() Bool)
(declare-fun p27() Bool)
(declare-fun p5() Bool)
(declare-fun p1() Bool)
(declare-fun p18() Bool)
(declare-fun p6() Bool)
(declare-fun p67() Bool)
(declare-fun p17() Bool)
(declare-fun p52() Bool)
(declare-fun p47() Bool)
(declare-fun p14() Bool)
(declare-fun p55() Bool)
(declare-fun p19() Bool)
(declare-fun p8() Bool)
(declare-fun p38() Bool)
(declare-fun p34() Bool)
(declare-fun p51() Bool)
(declare-fun p68() Bool)
(declare-fun p64() Bool)
(declare-fun p45() Bool)
(declare-fun p21() Bool)
(declare-fun p9() Bool)
(declare-fun p32() Bool)
(declare-fun p42() Bool)
(assert
(and (or (not p20) p59 (not p53)) (or (not p39) (not p46) (not p25)) (or (not p33) (not p10) (not p0)) (or p28 p23 (not p29)) (or p2 p62 (not p48)) (or (not p16) (not p26) p30) (or p15 (not p33) (not p28)) (or p4 p63 (not p48)) (or (not p12) (not p48) p63) (or (not p44) p28 p22) (or (not p31) p44 (not p50)) (or (not p60) (not p39) p66) (or p41 p53 p37) (or (not p58) p41 p43) (or p44 p40 p56) (or (not p65) (not p43) p65) (or p13 p3 p10) (or (not p23) (not p63) (not p59)) (or (not p16) p62 p3) (or (not p69) p61 p63) (or (not p54) (not p50) (not p36)) (or (not p49) (not p35) (not p56)) (or (not p11) p57 p15) (or p15 p24 (not p58)) (or p7 p24 (not p56)) (or (not p40) p24 p43) (or (not p57) p65 p65) (or p27 p54 p46) (or (not p61) (not p23) p16) (or (not p65) (not p50) p44) (or (not p10) (not p44) (not p5)) (or (not p1) (not p18) p56) (or (not p40) (not p36) (not p6)) (or p54 (not p2) p12) (or (not p67) (not p31) p0) (or (not p60) p6 (not p37)) (or p0 (not p7) p46) (or p17 p46 (not p7)) (or (not p49) (not p48) p52) (or (not p22) (not p57) p7) (or p30 (not p60) (not p22)) (or p50 p35 p66) (or (not p23) p16 p47) (or p60 (not p12) (not p66)) (or (not p57) p53 (not p66)) (or (not p54) (not p56) (not p44)) (or (not p57) p59 (not p52)) (or (not p14) p52 (not p55)) (or p24 (not p19) p11) (or p8 p18 (not p41)) (or p58 (not p57) (not p57)) (or p18 (not p36) p33) (or p26 (not p12) p8) (or p26 (not p27) (not p25)) (or p59 (not p38) (not p39)) (or p34 p5 (not p50)) (or (not p36) (not p66) p33) (or p51 (not p43) p68) (or p1 p64 p58) (or p28 (not p15) (not p49)) (or p3 (not p56) (not p22)) (or (not p33) (not p25) p43) (or p45 p26 (not p28)) (or (not p46) (not p55) (not p57)) (or (not p2) (not p62) (not p1)) (or (not p33) p2 (not p39)) (or p40 p36 p0) (or p45 p12 (not p63)) (or p41 p63 p57) (or p6 (not p21) p67) (or p55 p5 p44) (or (not p23) (not p45) p0) (or p28 p2 (not p46)) (or (not p44) p0 (not p6)) (or (not p7) p46 (not p52)) (or p51 p17 (not p62)) (or (not p52) (not p27) p46) (or p53 (not p51) (not p28)) (or p0 p2 (not p39)) (or (not p20) p35 p18) (or p14 p46 (not p64)) (or (not p4) (not p31) p9) (or (not p28) p21 p52) (or (not p53) (not p28) p22) (or (not p64) p26 (not p22)) (or (not p66) (not p11) (not p15)) (or p50 p48 p56) (or (not p28) (not p64) (not p36)) (or (not p44) p65 p67) (or p22 (not p11) (not p32)) (or p51 p64 p34) (or (not p63) p5 (not p34)) (or (not p39) (not p42) (not p47)) (or (not p4) p37 (not p66)) (or (not p52) (not p5) p17) (or p56 p57 (not p17)) (or p61 (not p27) p3) (or (not p20) (not p35) p45) (or p44 p17 (not p1)) (or p18 (not p27) (not p51)) (or (not p58) p61 (not p11)) (or p0 p14 (not p24)) (or p11 (not p6) p68) (or p42 (not p20) p1) (or (not p42) (not p32) p20) (or (not p26) (not p51) (not p38)) (or p29 p55 p5) (or (not p27) (not p63) p34) (or (not p62) p15 (not p39)) (or p17 (not p57) p35) (or (not p9) (not p51) (not p39)) (or (not p30) p62 p6) (or p16 p55 (not p2)) (or (not p45) (not p4) (not p62)) (or p64 p65 (not p21)) (or (not p52) p14 p3) (or p39 (not p68) p65) (or (not p51) (not p37) (not p28)) (or (not p65) (not p29) p35) (or p57 (not p30) p16) (or p27 (not p9) (not p24)) (or (not p3) (not p34) p56) (or p41 (not p21) (not p26)) (or (not p23) (not p63) (not p29)) (or p39 (not p65) (not p0)) (or p63 (not p47) p33) (or p28 (not p48) p16) (or p56 p10 (not p68)) (or (not p42) p60 (not p11)) (or p13 p44 (not p23)) (or p13 p25 p57) (or p66 (not p23) (not p9)) (or (not p50) (not p24) (not p25)) (or p46 (not p9) p51) (or p50 p3 (not p3)) (or (not p67) p54 p64) (or p8 p27 p2) (or p1 (not p61) p7) (or (not p35) p28 p51) (or p68 p55 (not p27)) (or (not p3) (not p8) p42) (or p59 p43 (not p42)) (or p10 p48 (not p36)) (or (not p56) p17 (not p60)) (or p63 (not p1) p26) (or (not p47) (not p69) p21) (or (not p59) (not p7) (not p22)) (or (not p5) (not p36) p1) (or (not p31) p20 (not p36)) (or p60 p23 (not p39)) (or p34 p47 (not p20)) (or p33 p10 p16) (or p21 (not p33) p14) (or (not p8) (not p10) p47) (or p3 (not p44) p24) (or p9 (not p23) (not p2)) (or (not p2) p53 p18) (or p57 (not p29) (not p27)) (or (not p12) p16 (not p59)) (or (not p13) (not p59) (not p54)) (or p5 p18 (not p18)) (or p4 (not p67) p3) (or p27 p67 (not p46)) (or (not p13) p27 p65) (or p1 (not p38) p45) (or (not p63) (not p18) (not p4)) (or p23 (not p36) p49) (or p1 p26 (not p48)) (or p11 p44 p4) (or (not p0) p3 p53) (or p2 p0 p32) (or (not p22) p37 (not p14)) (or (not p69) (not p22) p42) (or p9 (not p64) (not p11)) (or p54 (not p44) p33) (or (not p26) (not p41) p27) (or (not p16) (not p16) (not p34)) (or (not p58) (not p60) p69) (or p21 (not p26) p51) (or p65 p26 p11) (or (not p56) (not p6) p33) (or p55 (not p26) p25) (or p6 (not p18) p39) (or (not p36) (not p47) (not p59)) (or p0 p8 (not p2)) (or p47 (not p13) p48) (or (not p54) p36 p29) (or p2 (not p34) p26) (or (not p41) (not p52) p65) (or (not p65) p2 (not p56)) (or (not p67) (not p0) p69) (or p51 (not p44) p12) (or (not p27) (not p33) p26) (or p31 (not p34) (not p48)) (or p15 p35 p59) (or p1 p10 (not p48)) (or p18 (not p17) (not p37)) (or p67 p27 p33) (or p8 (not p43) p54) (or p17 (not p69) p67) (or (not p47) (not p15) (not p48)) (or p69 (not p19) (not p29)) (or (not p50) (not p26) (not p27)) (or (not p3) p32 p30) (or p60 (not p15) (not p30)) (or p2 p25 p59) (or (not p41) p10 p4) (or p2 (not p47) p0) (or (not p16) (not p22) (not p19)) (or (not p56) (not p6) p33) (or (not p0) p67 (not p32)) (or p14 p60 (not p53)) (or (not p30) p23 (not p21)) (or (not p61) p18 (not p10)) (or (not p46) (not p28) (not p18)) (or p4 (not p19) p26) (or (not p11) p33 p55) (or (not p26) p63 (not p26)) (or p4 (not p24) (not p43)) (or p31 p1 (not p48)) (or p56 (not p52) p32) (or p64 p7 p4) (or (not p45) p18 p35) (or p4 p40 (not p4)) (or (not p49) p46 (not p13)) (or p30 (not p28) (not p56)) (or p66 (not p68) p43) (or p48 (not p4) (not p39)) (or p4 p64 p57) (or (not p12) p68 p26) (or p44 (not p36) p7) (or p49 p42 (not p18)) (or p65 (not p39) p17) (or (not p42) (not p65) (not p51)) (or p9 p68 (not p37)) (or p19 (not p43) (not p69)) (or p30 (not p12) (not p59)) (or (not p58) (not p67) p48) (or p47 p26 (not p41)) (or p18 p64 p34) (or p14 (not p6) p66) (or p38 (not p11) p18) (or p17 (not p55) (not p64)) (or (not p43) (not p18) p28) (or (not p43) p25 (not p27)) (or (not p29) p40 p23) (or p28 p36 p23) (or (not p45) (not p62) p49) (or (not p54) p16 p31) (or (not p5) (not p27) (not p20)) (or (not p51) (not p49) p5) (or (not p47) p24 (not p18)) (or (not p44) (not p20) p40) (or (not p2) (not p6) p68) (or (not p7) (not p9) p54) (or (not p3) p59 p13) (or (not p16) p38 p2) (or (not p44) p4 (not p1)) (or p16 (not p40) p67) (or p63 (not p61) (not p27)) (or p67 (not p5) (not p66)) (or (not p61) p15 (not p19)) (or (not p18) p49 p25) (or p1 p59 (not p45)) (or p8 p53 (not p21)) (or p38 p54 (not p36)) (or (not p9) (not p17) p12) (or p24 (not p64) p3) (or (not p64) p15 p53) (or p20 (not p1) (not p5)) (or (not p31) p47 p23) (or (not p48) p57 (not p63)) (or p44 p51 p5) (or (not p38) (not p6) (not p46)) (or (not p17) (not p37) (not p32)) (or p41 p64 p43) (or (not p14) (not p62) (not p50)) (or p42 p65 (not p63)) (or (not p51) (not p61) (not p17)) (or p26 (not p10) p30) (or (not p40) p36 (not p43)) (or (not p10) p67 (not p42)) (or p56 (not p43) (not p6)) (or (not p6) p9 (not p9)) (or p38 p16 (not p28)) (or p8 (not p65) (not p8)) (or (not p50) (not p49) (not p66)) (or p27 p24 p65) (or (not p27) p43 p44) (or p55 p48 p64) (or (not p18) (not p9) (not p13)) (or (not p65) p42 p53) (or p10 (not p65) p0) (or p35 (not p59) p54) (or p26 (not p5) (not p27)) (or (not p54) p55 p0) (or (not p26) (not p33) p0))
)
(check-sat)
(get-model)
